100
120
99
98
98
98
96
95
94
91
90
90
90
89
88
86
85
85
84
83
83
83
83
82
80
80
79
79
78
78
77
77
77
77
77
76
76
76
76
76
76
76
76
73
73
72
71
71
70
70
68
67
67
67
66
65
64
63
62
62
62
61
59
57
56
56
56
56
55
54
54
54
54
53
52
52
51
51
50
48
47
47
47
45
45
44
44
42
41
41
38
37
36
34
34
34
32
32
32
31
30
30
